
Gurobi 10.0.3 (linux64, gurobi_cl) logging started Thu Nov  9 11:48:21 2023

Set parameter Username
Set parameter TimeLimit to value 3600
Set parameter LogFile to value "RCPSP_1163.log"
Set parameter Threads to value 32
Academic license - for non-commercial use only - expires 2024-10-30
Using license file /home/jrivera6/gurobi-licenses/v1003/compute-0-38/gurobi.lic

Gurobi Optimizer version 10.0.3 build v10.0.3rc0 (linux64)
Copyright (c) 2023, Gurobi Optimization, LLC

Read MPS format model from file RCPSP_1163.mps
Reading time = 0.05 seconds
RCPSP_1163: 42947 rows, 17020 columns, 142862 nonzeros

CPU model: Intel(R) Xeon(R) Gold 6242 CPU @ 2.80GHz, instruction set [SSE2|AVX|AVX2|AVX512]
Thread count: 32 physical cores, 32 logical processors, using up to 32 threads

Optimize a model with 42947 rows, 17020 columns and 142862 nonzeros
Model fingerprint: 0x9a176163
Variable types: 92 continuous, 16928 integer (16928 binary)
Coefficient statistics:
  Matrix range     [1e+00, 5e+02]
  Objective range  [1e+00, 1e+00]
  Bounds range     [1e+00, 1e+00]
  RHS range        [1e+00, 5e+02]
Presolve removed 9398 rows and 2215 columns (presolve time = 5s) ...
Presolve removed 14259 rows and 4118 columns
Presolve time: 6.82s
Presolved: 28688 rows, 12902 columns, 98781 nonzeros
Variable types: 91 continuous, 12811 integer (12811 binary)

Root simplex log...

Iteration    Objective       Primal Inf.    Dual Inf.      Time
       0    1.0100000e+02   9.739012e+04   0.000000e+00      7s
    4563    1.0100000e+02   0.000000e+00   0.000000e+00      7s

Root relaxation: objective 1.010000e+02, 4563 iterations, 0.36 seconds (0.13 work units)
Total elapsed time = 10.30s

    Nodes    |    Current Node    |     Objective Bounds      |     Work
 Expl Unexpl |  Obj  Depth IntInf | Incumbent    BestBd   Gap | It/Node Time

     0     0  101.00000    0  288          -  101.00000      -     -   11s
     0     0  101.00000    0 1046          -  101.00000      -     -   30s
     0     0  101.00000    0 1007          -  101.00000      -     -   34s
     0     0  101.00000    0  948          -  101.00000      -     -   34s
     0     0  101.00000    0  920          -  101.00000      -     -   76s
     0     0  101.00000    0  875          -  101.00000      -     -   76s
     0     0  101.00000    0  433          -  101.00000      -     -   91s
     0     0  101.00000    0  985          -  101.00000      -     -   95s
     0     0  101.00000    0  982          -  101.00000      -     -   96s
     0     0  101.00000    0  247          -  101.00000      -     -  108s
     0     0  101.00000    0  373          -  101.00000      -     -  111s
     0     0  101.00000    0  372          -  101.00000      -     -  111s
     0     0  101.00000    0  303          -  101.00000      -     -  122s
     0     0  101.00000    0  300          -  101.00000      -     -  122s
     0     0  101.00000    0  423          -  101.00000      -     -  124s
     0     0  101.00000    0  437          -  101.00000      -     -  125s
     0     0  101.00000    0  528          -  101.00000      -     -  134s
     0     0  101.00000    0  526          -  101.00000      -     -  134s
     0     0  101.00000    0  797          -  101.00000      -     -  136s
     0     0  101.00000    0  777          -  101.00000      -     -  137s
     0     0  101.00000    0  515          -  101.00000      -     -  145s
     0     0  101.00000    0  504          -  101.00000      -     -  145s
     0     0  101.00000    0  433          -  101.00000      -     -  149s
     0     2  101.00000    0  433          -  101.00000      -     -  169s
     1     4  101.00000    1  438          -  101.00000      -  2295  175s
     3     8  101.00000    2  477          -  101.00000      -   884  180s
     7    16  101.00000    3  790          -  101.00000      -   711  192s
    15    32  101.01690    4  939          -  101.00000      -   917  212s
    31    64  101.01693    5  759          -  101.00000      -  1201  224s
    63    95  105.01439    6  716          -  101.01693      -   863  232s
    95   125  102.73737    6  854          -  101.01693      -   682  242s
   127   143  102.73737    7  854          -  101.01693      -   581  250s
   191   204  102.86667    9  784          -  101.01693      -   451  258s
   245   253  102.86667   11  781          -  101.01693      -   375  262s
   296   305  103.00000   13  759          -  101.01693      -   321  266s
   348   360  103.00000   15  753          -  101.01693      -   284  271s
   479   483  103.00000   17  794          -  101.01693      -   221  279s
   546   543  110.00000   19  706          -  101.01693      -   203  285s
   614   613  110.00000   20  686          -  101.01693      -   188  290s
   689   700  110.00000   21  726          -  101.01693      -   174  295s
   862   880  119.00000   22  675          -  101.01693      -   145  302s
   959   978  110.00000   23  769          -  101.01693      -   134  308s
  1057  1105  110.00000   24  768          -  101.01693      -   124  312s
  1192  1248  110.00000   27  710          -  101.01693      -   114  317s
  1340  1362  110.00000   29  850          -  101.01693      -   106  324s
  1467  1509  110.00000   30  794          -  101.01693      -   104  331s
  1635  1676  110.00000   31  803          -  101.01693      -  97.4  342s
  1829  1834  110.00000   32  797          -  101.01693      -  91.0  348s
  2011  2016  110.00000   33  793          -  101.01693      -  87.0  356s
  2205  2215  110.00000   35  772          -  101.01693      -  83.3  363s
  2441  2427  110.00000   36  775          -  101.01693      -  79.1  368s
  2692  2609  110.00000   38  742          -  101.01693      -  75.0  374s
  2931  2818  110.00000   39  740          -  101.01693      -  72.5  381s
  3193  3014  114.00000   41  722          -  101.01693      -  70.0  390s
  3455  3238  123.00000   42  672          -  101.01693      -  68.2  406s
  3751  3460  123.00000   43  685          -  101.01693      -  66.3  417s
  4060  3627  123.00000   44  668          -  101.01693      -  64.3  425s
  4301  3773 infeasible   46               -  102.00000      -  64.0  441s
  4532  3974  102.09581    7  860          -  102.00000      -  64.7  457s
  4807  4238  102.23392   10  838          -  102.00000      -  64.1  469s
  5150  4478  111.00000   12  601          -  102.00000      -  63.0  483s
  5477  4479  110.00000   87  433          -  102.00000      -  62.3  517s
  5479  4480  110.00000   72  171          -  102.00000      -  62.3  527s
  5480  4481  110.00000    9  742          -  102.00000      -  62.2  532s
  5483  4483  110.00000   30  920          -  102.00000      -  62.2  535s
  5484  4484  115.00000   93  559          -  102.00000      -  62.2  541s
  5486  4485  118.00000   72  807          -  102.00000      -  62.2  546s
  5488  4486  118.00000   66  569          -  102.00000      -  62.2  554s
  5489  4487  117.00000   50  364          -  102.00000      -  62.1  555s
  5490  4488  111.00000   26  364          -  102.00000      -  62.1  562s
  5491  4491  105.00000   11  305          -  102.71429      -   8.2  589s
  5493  4495  107.00000   12  327          -  107.00000      -   8.4  599s
  5497  4501  107.00000   13  326          -  107.00000      -   8.6  609s
  5505  4515  107.00000   14  344          -  107.00000      -   8.7  620s
  5521  4538  107.00000   15  342          -  107.00000      -   8.9  629s
  5553  4555  107.00000   16  242          -  107.00000      -   9.2  633s
  5585  4568  107.00000   16  342          -  107.00000      -  10.1  635s
  5649  4607  131.00000   17  998          -  107.00000      -  11.1  641s
  5720  4650  107.00000   18  340          -  107.00000      -  11.5  645s
  5844  4716  107.00000   20  342          -  107.00000      -  12.2  650s
  5972  4805  107.00000   21  418          -  107.00000      -  12.9  655s
  6024  4816  108.00000   22  566          -  107.00000      -  13.1  677s
  6116  4894  108.00000   23  568          -  107.00000      -  13.4  682s
  6181  4934  108.00000   24  568          -  107.00000      -  13.5  685s
  6372  5053  108.00000   26  618          -  107.00000      -  13.6  691s
  6433  5064  108.00000   27  629          -  107.00000      -  13.7  729s
  6466  5067  108.00000   27  639          -  107.00000      -  13.8  749s
  6500  5072 infeasible   28               -  107.00000      -  14.1  768s
  6551  5080 infeasible   28               -  107.00000      -  14.4  786s
  6591  5099  108.00000   29  610          -  107.00000      -  14.7  803s
  6636  5188  108.00000   29  625          -  107.00000      -  14.8  807s
  6747  5250  108.00000   30  562          -  107.00000      -  15.0  810s
  6954  5370  119.93292   32  670          -  107.00000      -  15.5  817s
  7059  5434  108.00000   34  514          -  107.00000      -  15.7  820s
  7289  5483  108.00000   36  472          -  107.00000      -  16.2  845s
  7324  5570  108.00000   37  470          -  107.00000      -  16.3  850s
  7471  5648  108.00000   38  466          -  107.00000      -  16.5  855s
  7757  5824  108.00000   42  510          -  107.00000      -  17.1  863s
  7904  5789  108.00000   44  512          -  107.00000      -  17.4  882s
  7940  5863  108.00000   45  512          -  107.00000      -  17.5  887s
  8111  5945  108.00000   47  512          -  107.00000      -  17.7  892s
  8271  6033  112.00000   49  474          -  107.00000      -  18.0  899s
  8436  6121  108.00000   51  484          -  107.00000      -  18.5  903s
  8590  6165  108.00000   53  492          -  107.00000      -  19.0  929s
  8712  6234  108.00000   55  501          -  107.00000      -  19.2  937s
  8894  6346  110.00000   59  469          -  107.00000      -  19.8  943s
  9098  6496  111.00000   62  465          -  107.00000      -  19.9  948s
  9348  6406  110.00000   66  474          -  107.00000      -  20.0  977s
  9396  6700  112.00000   66  496          -  107.00000      -  20.2  984s
  9786  7086  110.00000   71  480          -  107.00000      -  20.6  990s
 10348  7439  110.00000   75  481          -  107.00000      -  20.8  997s
 10954  7922  112.00000   79  503          -  107.00000      -  20.8 1004s
 11733  7666  118.00000   84  474          -  107.00000      -  20.7 1040s
 11784  8295 infeasible   84               -  107.00000      -  21.0 1049s
 12534  8849  120.00000   91  639          -  107.00000      -  21.1 1061s
 13492  9364  124.00000  102  654          -  107.00000      -  21.2 1074s
 14558  9887  120.00000  114  631          -  107.00000      -  21.3 1087s
 15629  9545 infeasible  124               -  107.00000      -  21.5 1137s
 15678 10344 infeasible  125               -  107.00000      -  21.6 1153s
 16703 11169  114.00000   30  292          -  107.00000      -  22.3 1169s
 18099 11866  114.00000   87  446          -  107.00000      -  22.4 1187s
 19504 12629  115.00000  139  469          -  107.00000      -  22.3 1201s
 20863 13650  118.00000  164  433          -  107.00000      -  22.3 1219s
 22259 14719  118.00000  189  413          -  107.00000      -  22.3 1236s
 23721 14688 infeasible  213               -  107.00000      -  22.2 1279s
 23778 14931  109.10101   21  483          -  107.00000      -  22.3 1296s
 24242 16455  118.00000   26  418          -  107.00000      -  22.5 1312s
 25988 17846  120.00000   47  468          -  107.00000      -  22.5 1327s
 27637 18175  120.00000   28  480          -  107.00000      -  22.5 1342s
 28158 18177  120.00000   42  598          -  107.00000      -  22.5 1403s
 28222 19626  120.00000   44  590          -  107.00000      -  22.6 1419s
 29941 22370  125.00000   84  571          -  107.00000      -  22.7 1471s
 33339 23092  110.00000   28  776          -  107.00000      -  22.4 1486s
 34380 24562  113.00000   50  811          -  107.00000      -  22.4 1502s
 36190 25752  113.00000   93  855          -  107.00000      -  22.4 1520s
 37739 25741 infeasible  156               -  107.00000      -  22.4 1583s
 37814 27151 infeasible  156               -  107.00000      -  22.6 1601s
 39520 29134  112.00000   54  470          -  107.00000      -  22.7 1623s
 41931 31109  111.00000   59  498          -  107.00000      -  22.3 1644s
 44248 32683 infeasible  117               -  107.00000      -  22.2 1665s
 46387 32842 infeasible  146               -  107.00000      -  22.1 1711s
 46655 34764  117.00000   43  415          -  107.00000      -  22.2 1734s
 49042 36784  120.00000  103  356          -  107.00000      -  22.2 1760s
 51654 36799  121.00000  156  377          -  107.00000      -  22.1 1813s
 51781 36836  120.00000  156  367          -  107.00000      -  22.2 1899s
 51853 36929  121.00000  159  362          -  107.00000      -  22.2 1944s
 51978 39792  120.00000  159  364          -  107.00000      -  22.3 1971s
 55314 41837  107.00000   42  579          -  107.00000      -  22.1 1997s
 57889 44325 infeasible   97               -  107.00000      -  22.1 2032s
 60962 44326  125.00000   98  433          -  107.00000      -  22.1 2167s
 60964 44327  117.00000   62  243          -  107.00000      -  22.1 2178s
 60965 44328  111.00000   90  443          -  107.00000      -  22.1 2181s
 60967 44329  123.00000  139  282          -  107.00000      -  22.1 2206s
 60968 44330  119.00000   80  438          -  107.00000      -  22.1 2221s
 60969 44331  126.00000  174  308          -  107.00000      -  22.1 2238s
 60970 44331  124.00000  101  454          -  107.00000      -  22.1 2247s
 60971 44332  131.00000  165  129          -  107.00000      -  22.1 2260s
 60972 44333  116.00000   96  322          -  107.00000      -  22.1 2272s
 60973 44333  140.00000  185  157          -  107.00000      -  22.1 2294s
 60974 44334  121.00000  144  330          -  107.00000      -  22.1 2303s
 60975 44335  118.00000   67  190          -  107.00000      -  22.1 2343s
 60976 44335  124.00000   80  331          -  107.00000      -  22.1 2353s
 60977 44336  114.00000   49  349          -  107.00000      -  22.1 2363s
 60978 44337  133.00000  103  418          -  107.00000      -  22.1 2373s
 60979 44337  118.00000   42  224          -  107.00000      -  22.1 2386s
 60980 44338  119.00000   98  381          -  107.00000      -  22.1 2398s
 60981 44339  126.00000  108  248          -  107.00000      -  22.1 2419s
 60982 44339  117.00000  196  411          -  107.00000      -  22.1 2437s
 60983 44340  114.00000  152  180          -  107.00000      -  22.1 2459s
 60984 44341  111.00000   69  180          -  107.00000      -  22.1 2464s
 60985 44341  123.00000  252  180          -  107.00000      -  22.0 2469s
 60986 44345  107.00000   25  167          -  107.00000      -  23.5 2499s
 60988 44348  107.00000   26  290          -  107.00000      -  23.6 2512s
 60992 44355  107.00000   27  270          -  107.00000      -  23.6 2523s
 61000 44368  107.00000   28  362          -  107.00000      -  23.6 2533s
 61016 44395  107.00000   29  341          -  107.00000      -  23.7 2547s
 61048 44416  107.00000   30  336          -  107.00000      -  23.8 2563s
 61080 44437  107.00000   30  324          -  107.00000      -  23.9 2579s
 61112 44454  107.00000   31  348          -  107.00000      -  23.9 2592s
 61144 44475  107.00000   31  336          -  107.00000      -  24.0 2642s
H61146 42257                     489.0000000  107.00000  78.1%  24.0 2644s
H61176 40171                     193.0000000  107.00000  44.6%  24.1 2939s
H61176 38170                     192.0000000  107.00000  44.3%  24.1 2939s
H61177 36268                     190.0000000  107.00000  43.7%  24.1 2939s
H61178 34462                     189.0000000  107.00000  43.4%  24.1 2939s
H61179 32746                     188.0000000  107.00000  43.1%  24.1 2939s
H61179 31116                     188.0000000  107.00000  43.1%  24.1 2939s
H61181 29567                     187.0000000  107.00000  42.8%  24.1 2939s
H61185 28094                     186.0000000  107.00000  42.5%  24.1 2939s
H61192 26694                     184.0000000  107.00000  41.8%  24.3 2939s
 61209 26721  107.00000   32  356  184.00000  107.00000  41.8%  25.2 3303s
H61241 25414                     173.0000000  107.00000  38.2%  25.3 3619s
H61242 24153                     165.0000000  107.00000  35.2%  25.3 3619s

Cutting planes:
  Learned: 13
  Gomory: 30
  Cover: 12
  Implied bound: 2
  Clique: 1
  MIR: 4
  StrongCG: 1
  Flow cover: 8
  RLT: 1
  Relax-and-lift: 1

Explored 61273 nodes (1999115 simplex iterations) in 3661.41 seconds (236.59 work units)
Thread count was 32 (of 32 available processors)

Solution count 10: 165 173 184 ... 192

Time limit reached
Best objective 1.650000000000e+02, best bound 1.070000000000e+02, gap 35.1515%

Wrote result file 'RCPSP_1163.sol'

